experiment/data/lkh-res/Vrp-Set-Golden-n321/Vrp-Set-Golden-n321-lkh/1.lkh1.tour
NAME : 1.829884.tour
COMMENT : Length = 829884
COMMENT : Found by LKH-3 [Keld Helsgaun] Tue Apr  9 02:00:36 2024
TYPE : TOUR
DIMENSION : 330
TOUR_SECTION
1
26
66
106
146
145
185
225
265
305
304
264
224
223
263
303
302
262
222
221
261
301
300
260
220
180
181
182
183
184
144
143
142
102
103
104
105
65
25
328
23
22
21
20
19
17
16
15
14
13
12
329
8
9
49
89
90
91
131
132
172
171
211
251
291
290
250
210
209
249
289
288
248
208
168
169
170
130
129
128
88
48
47
46
6
7
324
33
73
113
153
193
194
195
235
275
315
314
274
234
233
273
313
312
272
232
231
271
311
310
270
230
190
191
192
152
112
72
71
31
32
330
10
50
51
52
92
93
133
173
213
212
252
292
293
253
254
294
295
255
256
296
297
257
258
298
299
259
219
218
217
216
215
214
174
134
94
54
53
11
322
4
5
45
85
86
87
127
126
166
167
207
247
287
286
246
206
205
245
285
284
244
204
164
165
125
124
123
83
84
44
43
3
2
41
325
34
74
75
76
77
78
79
119
118
117
116
115
114
154
155
156
157
158
159
160
120
80
40
39
38
37
36
35
327
24
64
63
62
61
60
59
99
100
101
141
140
139
179
178
177
176
175
135
136
137
138
98
97
96
95
55
56
57
58
18
326
42
82
122
162
163
203
243
283
282
242
202
241
281
321
320
280
240
239
279
319
318
278
238
237
277
317
316
276
236
196
197
198
199
200
201
161
121
81
323
28
29
30
70
69
109
110
111
151
150
149
189
229
269
309
308
268
228
227
267
307
306
266
226
186
187
188
148
147
107
108
68
67
27
-1
EOF
